param constrK := 2;
param taskN := 3;

# old cstr
param nJob: 1 2 3 :=
1    1 0 1
2    0 1 0;
param tk :=
1	4,
2	5;

# added cstr (to check for linear independency)
param nJobNew :=
1	1,
2	1,
3	1;

param tkNew := 8;

end;
